\ENCODING=ISO-8859-1
\Problem name: IloCplex

Minimize
 obj1: 10 tp(0) + 10 tm(0) + 10 tp(1) + 10 tm(1) + 10 tp(2) + 10 tm(2)
       + 10 tp(3) + 10 tm(3) + 10 tp(4) + 10 tm(4) + 10 tp(5) + 10 tm(5)
       + 10 tp(6) + 10 tm(6) + 10 tp(7) + 10 tm(7) + 10 tp(8) + 10 tm(8)
       + 10 tp(9) + 10 tm(9) + 10 tp(10) + 10 tm(10) + 10 tp(11) + 10 tm(11)
       + 10 tp(12) + 10 tm(12) + 10 tp(13) + 10 tm(13) + 10 tp(14) + 10 tm(14)
       + 10 tp(15) + 10 tm(15) + 10 tp(16) + 10 tm(16) + 10 tp(17) + 10 tm(17)
       + 10 tp(18) + 10 tm(18) + 10 tp(19) + 10 tm(19) + 10 tp(20) + 10 tm(20)
       + 10 tp(21) + 10 tm(21) + 10 tp(22) + 10 tm(22) + 10 tp(23) + 10 tm(23)
       + 10 tp(24) + 10 tm(24) + 10 tp(25) + 10 tm(25) + 10 tp(26) + 10 tm(26)
       + 10 tp(27) + 10 tm(27) + 10 tp(28) + 10 tm(28) + 10 tp(29) + 10 tm(29)
       + 10 tp(30) + 10 tm(30) + 10 tp(31) + 10 tm(31) + 10 tp(32) + 10 tm(32)
       + 10 tp(33) + 10 tm(33) + 10 tp(34) + 10 tm(34) + 10 tp(35) + 10 tm(35)
       + 10 tp(36) + 10 tm(36) + 10 tp(37) + 10 tm(37) + 10 tp(38) + 10 tm(38)
       + 10 tp(39) + 10 tm(39) + 10 tp(40) + 10 tm(40) + 10 tp(41) + 10 tm(41)
       + 10 tp(42) + 10 tm(42) + 10 tp(43) + 10 tm(43) + 10 tp(44) + 10 tm(44)
       + 10 tp(45) + 10 tm(45) + 10 tp(46) + 10 tm(46) + 10 tp(47) + 10 tm(47)
       + 10 tp(48) + 10 tm(48) + 10 tp(49) + 10 tm(49) + [ w(8) ^2 + w(7) ^2
       + w(6) ^2 + w(5) ^2 + w(4) ^2 + w(3) ^2 + w(2) ^2 + w(1) ^2 + w(0) ^2
       ] / 2
Subject To
 c1:   0.47018071 w(8) - 0.08604534 w(7) + 0.13210982 w(6) + 0.34949925 w(5)
       - 1.52188378 w(4) - 0.59621212 w(3) - 0.10127113 w(2) - 0.24683106 w(1)
       - 0.30892767 w(0) + z - pp(0) <= -3.08295049
 c2:   - 0.47018071 w(8) + 0.08604534 w(7) - 0.13210982 w(6) - 0.34949925 w(5)
       + 1.52188378 w(4) + 0.59621212 w(3) + 0.10127113 w(2) + 0.24683106 w(1)
       + 0.30892767 w(0) - z - pm(0) <= 3.48295049
 c3:   tp(0) - pp(0) <= 0
 c4:   tp(0) - 156 s(0) <= 0
 c5:   tp(0) - pp(0) - 156 s(0) >= -156
 c6:   tm(0) - pm(0) <= 0
 c7:   tm(0) - 149 s(0) <= 0
 c8:   tm(0) - pm(0) - 149 s(0) >= -149
 c9:   - 0.38039555 w(8) - 1.02250557 w(7) + 0.7497086 w(6) + 0.33407509 w(5)
       - 0.16348764 w(4) + 0.52705217 w(3) - 2.61826318 w(2) - 0.41205675 w(1)
       + 0.53198106 w(0) + z - pp(1) <= -1.35443246
 c10:  0.38039555 w(8) + 1.02250557 w(7) - 0.7497086 w(6) - 0.33407509 w(5)
       + 0.16348764 w(4) - 0.52705217 w(3) + 2.61826318 w(2) + 0.41205675 w(1)
       - 0.53198106 w(0) - z - pm(1) <= 1.75443246
 c11:  tp(1) - pp(1) <= 0
 c12:  tp(1) - 156 s(1) <= 0
 c13:  tp(1) - pp(1) - 156 s(1) >= -156
 c14:  tm(1) - pm(1) <= 0
 c15:  tm(1) - 149 s(1) <= 0
 c16:  tm(1) - pm(1) - 149 s(1) >= -149
 c17:  - 0.33081216 w(8) + 0.92768805 w(7) + 0.75069772 w(6) + 0.99047163 w(5)
       + 0.57969513 w(4) - 0.49295708 w(3) - 0.93581679 w(2) - 0.13730944 w(1)
       - 0.16122888 w(0) + z - pp(2) <= -0.07613973
 c18:  0.33081216 w(8) - 0.92768805 w(7) - 0.75069772 w(6) - 0.99047163 w(5)
       - 0.57969513 w(4) + 0.49295708 w(3) + 0.93581679 w(2) + 0.13730944 w(1)
       + 0.16122888 w(0) - z - pm(2) <= 0.47613973
 c19:  tp(2) - pp(2) <= 0
 c20:  tp(2) - 156 s(2) <= 0
 c21:  tp(2) - pp(2) - 156 s(2) >= -156
 c22:  tm(2) - pm(2) <= 0
 c23:  tm(2) - 149 s(2) <= 0
 c24:  tm(2) - pm(2) - 149 s(2) >= -149
 c25:  - 0.52415685 w(8) - 0.05792613 w(7) + 0.65905003 w(6) - 0.5723829 w(5)
       + 1.45323247 w(4) + 0.69120801 w(3) - 0.42565008 w(2) + 1.39260126 w(1)
       - 2.61350525 w(0) + z - pp(3) <= -1.03357381
 c26:  0.52415685 w(8) + 0.05792613 w(7) - 0.65905003 w(6) + 0.5723829 w(5)
       - 1.45323247 w(4) - 0.69120801 w(3) + 0.42565008 w(2) - 1.39260126 w(1)
       + 2.61350525 w(0) - z - pm(3) <= 1.43357381
 c27:  tp(3) - pp(3) <= 0
 c28:  tp(3) - 156 s(3) <= 0
 c29:  tp(3) - pp(3) - 156 s(3) >= -156
 c30:  tm(3) - pm(3) <= 0
 c31:  tm(3) - 149 s(3) <= 0
 c32:  tm(3) - pm(3) - 149 s(3) >= -149
 c33:  0.78810755 w(8) + 0.26970278 w(7) + 0.01793622 w(6) + 1.26882577 w(5)
       - 1.21693238 w(4) + 0.02237997 w(3) - 0.96975795 w(2) + 0.25162484 w(1)
       + 0.69188504 w(0) + z - pp(4) <= -1.17746268
 c34:  - 0.78810755 w(8) - 0.26970278 w(7) - 0.01793622 w(6) - 1.26882577 w(5)
       + 1.21693238 w(4) - 0.02237997 w(3) + 0.96975795 w(2) - 0.25162484 w(1)
       - 0.69188504 w(0) - z - pm(4) <= 1.57746268
 c35:  tp(4) - pp(4) <= 0
 c36:  tp(4) - 156 s(4) <= 0
 c37:  tp(4) - pp(4) - 156 s(4) >= -156
 c38:  tm(4) - pm(4) <= 0
 c39:  tm(4) - 149 s(4) <= 0
 c40:  tm(4) - pm(4) - 149 s(4) >= -149
 c41:  1.3419421 w(8) - 1.39408179 w(7) - 1.77248447 w(6) + 1.7732185 w(5)
       + 0.20739585 w(4) + 0.27640733 w(3) + 1.48654565 w(2) + 0.06373246 w(1)
       - 0.82229627 w(0) + z - pp(5) <= 3.53502165
 c42:  - 1.3419421 w(8) + 1.39408179 w(7) + 1.77248447 w(6) - 1.7732185 w(5)
       - 0.20739585 w(4) - 0.27640733 w(3) - 1.48654565 w(2) - 0.06373246 w(1)
       + 0.82229627 w(0) - z - pm(5) <= -3.13502165
 c43:  tp(5) - pp(5) <= 0
 c44:  tp(5) - 156 s(5) <= 0
 c45:  tp(5) - pp(5) - 156 s(5) >= -156
 c46:  tm(5) - pm(5) <= 0
 c47:  tm(5) - 149 s(5) <= 0
 c48:  tm(5) - pm(5) - 149 s(5) >= -149
 c49:  0.12731343 w(8) - 0.17703814 w(7) + 0.12310388 w(6) - 2.08159308 w(5)
       - 0.45225509 w(4) + 0.23807897 w(3) - 0.43758568 w(2) - 0.07253171 w(1)
       - 0.27926137 w(0) + z - pp(6) <= -2.18613333
 c50:  - 0.12731343 w(8) + 0.17703814 w(7) - 0.12310388 w(6) + 2.08159308 w(5)
       + 0.45225509 w(4) - 0.23807897 w(3) + 0.43758568 w(2) + 0.07253171 w(1)
       + 0.27926137 w(0) - z - pm(6) <= 2.58613333
 c51:  tp(6) - pp(6) <= 0
 c52:  tp(6) - 156 s(6) <= 0
 c53:  tp(6) - pp(6) - 156 s(6) >= -156
 c54:  tm(6) - pm(6) <= 0
 c55:  tm(6) - 149 s(6) <= 0
 c56:  tm(6) - pm(6) - 149 s(6) >= -149
 c57:  0.08536907 w(8) + 0.17378149 w(7) - 0.12993356 w(6) + 0.51436963 w(5)
       - 0.53319894 w(4) - 0.60582716 w(3) + 0.76091879 w(2) + 0.91160646 w(1)
       - 1.08149173 w(0) + z - pp(7) <= -0.29772419
 c58:  - 0.08536907 w(8) - 0.17378149 w(7) + 0.12993356 w(6) - 0.51436963 w(5)
       + 0.53319894 w(4) + 0.60582716 w(3) - 0.76091879 w(2) - 0.91160646 w(1)
       + 1.08149173 w(0) - z - pm(7) <= 0.69772419
 c59:  tp(7) - pp(7) <= 0
 c60:  tp(7) - 156 s(7) <= 0
 c61:  tp(7) - pp(7) - 156 s(7) >= -156
 c62:  tm(7) - pm(7) <= 0
 c63:  tm(7) - 149 s(7) <= 0
 c64:  tm(7) - pm(7) - 149 s(7) >= -149
 c65:  - 0.4482473 w(8) + 0.50201813 w(7) + 0.05761813 w(6) + 1.54100027 w(5)
       - 1.3116039 w(4) - 0.33502675 w(3) - 1.64336929 w(2) + 0.76588994 w(1)
       + 2.09297788 w(0) + z - pp(8) <= 1.51523672
 c66:  0.4482473 w(8) - 0.50201813 w(7) - 0.05761813 w(6) - 1.54100027 w(5)
       + 1.3116039 w(4) + 0.33502675 w(3) + 1.64336929 w(2) - 0.76588994 w(1)
       - 2.09297788 w(0) - z - pm(8) <= -1.11523672
 c67:  tp(8) - pp(8) <= 0
 c68:  tp(8) - 156 s(8) <= 0
 c69:  tp(8) - pp(8) - 156 s(8) >= -156
 c70:  tm(8) - pm(8) <= 0
 c71:  tm(8) - 149 s(8) <= 0
 c72:  tm(8) - pm(8) - 149 s(8) >= -149
 c73:  0.67076706 w(8) - 1.81641636 w(7) - 0.33487275 w(6) + 0.46734965 w(5)
       - 0.04630837 w(4) - 0.4153251 w(3) - 0.60491662 w(2) - 0.99683214 w(1)
       + 0.35126791 w(0) + z - pp(9) <= -1.49473894
 c74:  - 0.67076706 w(8) + 1.81641636 w(7) + 0.33487275 w(6) - 0.46734965 w(5)
       + 0.04630837 w(4) + 0.4153251 w(3) + 0.60491662 w(2) + 0.99683214 w(1)
       - 0.35126791 w(0) - z - pm(9) <= 1.89473894
 c75:  tp(9) - pp(9) <= 0
 c76:  tp(9) - 156 s(9) <= 0
 c77:  tp(9) - pp(9) - 156 s(9) >= -156
 c78:  tm(9) - pm(9) <= 0
 c79:  tm(9) - 149 s(9) <= 0
 c80:  tm(9) - pm(9) - 149 s(9) >= -149
 c81:  0.69997635 w(8) - 0.10602509 w(7) + 1.29809518 w(6) + 1.35662837 w(5)
       - 0.54883268 w(4) - 0.5290804 w(3) + 0.1622741 w(2) + 0.78582586 w(1)
       - 0.84175474 w(0) + z - pp(10) <= -0.34510625
 c82:  - 0.69997635 w(8) + 0.10602509 w(7) - 1.29809518 w(6) - 1.35662837 w(5)
       + 0.54883268 w(4) + 0.5290804 w(3) - 0.1622741 w(2) - 0.78582586 w(1)
       + 0.84175474 w(0) - z - pm(10) <= 0.74510625
 c83:  tp(10) - pp(10) <= 0
 c84:  tp(10) - 156 s(10) <= 0
 c85:  tp(10) - pp(10) - 156 s(10) >= -156
 c86:  tm(10) - pm(10) <= 0
 c87:  tm(10) - 149 s(10) <= 0
 c88:  tm(10) - pm(10) - 149 s(10) >= -149
 c89:  - 0.0235925 w(8) + 1.17141214 w(7) - 0.24729595 w(6) + 1.42230776 w(5)
       + 0.24079694 w(4) + 2.00659309 w(3) + 2.73451102 w(2) - 1.07008105 w(1)
       - 1.36650006 w(0) + z - pp(11) <= 3.0858929
 c90:  0.0235925 w(8) - 1.17141214 w(7) + 0.24729595 w(6) - 1.42230776 w(5)
       - 0.24079694 w(4) - 2.00659309 w(3) - 2.73451102 w(2) + 1.07008105 w(1)
       + 1.36650006 w(0) - z - pm(11) <= -2.6858929
 c91:  tp(11) - pp(11) <= 0
 c92:  tp(11) - 156 s(11) <= 0
 c93:  tp(11) - pp(11) - 156 s(11) >= -156
 c94:  tm(11) - pm(11) <= 0
 c95:  tm(11) - 149 s(11) <= 0
 c96:  tm(11) - pm(11) - 149 s(11) >= -149
 c97:  0.61412161 w(8) + 0.21671426 w(7) - 0.15865037 w(6) - 0.95558341 w(5)
       + 0.65559099 w(4) + 0.75025944 w(3) - 0.02787997 w(2) + 1.43620659 w(1)
       - 0.23923244 w(0) + z - pp(12) <= 1.32070614
 c98:  - 0.61412161 w(8) - 0.21671426 w(7) + 0.15865037 w(6) + 0.95558341 w(5)
       - 0.65559099 w(4) - 0.75025944 w(3) + 0.02787997 w(2) - 1.43620659 w(1)
       + 0.23923244 w(0) - z - pm(12) <= -0.92070614
 c99:  tp(12) - pp(12) <= 0
 c100: tp(12) - 156 s(12) <= 0
 c101: tp(12) - pp(12) - 156 s(12) >= -156
 c102: tm(12) - pm(12) <= 0
 c103: tm(12) - 149 s(12) <= 0
 c104: tm(12) - pm(12) - 149 s(12) >= -149
 c105: - 1.35830666 w(8) + 0.40768489 w(7) + 1.24541005 w(6) + 0.18077574 w(5)
       + 1.60297937 w(4) + 0.4030243 w(3) + 1.18129381 w(2) - 0.60363214 w(1)
       - 1.13607639 w(0) + z - pp(13) <= 0.25691829
 c106: 1.35830666 w(8) - 0.40768489 w(7) - 1.24541005 w(6) - 0.18077574 w(5)
       - 1.60297937 w(4) - 0.4030243 w(3) - 1.18129381 w(2) + 0.60363214 w(1)
       + 1.13607639 w(0) - z - pm(13) <= 0.14308171
 c107: tp(13) - pp(13) <= 0
 c108: tp(13) - 156 s(13) <= 0
 c109: tp(13) - pp(13) - 156 s(13) >= -156
 c110: tm(13) - pm(13) <= 0
 c111: tm(13) - 149 s(13) <= 0
 c112: tm(13) - pm(13) - 149 s(13) >= -149
 c113: 1.57918042 w(8) - 1.69642798 w(7) + 0.57453964 w(6) - 0.35629319 w(5)
       - 1.8344958 w(4) + 0.52124306 w(3) + 0.27126581 w(2) + 1.16288197 w(1)
       - 0.30837312 w(0) + z - pp(14) <= 1.16952757
 c114: - 1.57918042 w(8) + 1.69642798 w(7) - 0.57453964 w(6) + 0.35629319 w(5)
       + 1.8344958 w(4) - 0.52124306 w(3) - 0.27126581 w(2) - 1.16288197 w(1)
       + 0.30837312 w(0) - z - pm(14) <= -0.76952757
 c115: tp(14) - pp(14) <= 0
 c116: tp(14) - 156 s(14) <= 0
 c117: tp(14) - pp(14) - 156 s(14) >= -156
 c118: tm(14) - pm(14) <= 0
 c119: tm(14) - 149 s(14) <= 0
 c120: tm(14) - pm(14) - 149 s(14) >= -149
 c121: - 1.83622757 w(8) - 0.52498719 w(7) - 0.26348749 w(6) + 0.06143224 w(5)
       + 9.52211978 w(4) - 11.19499619 w(3) - 11.05575496 w(2)
       - 9.83310735 w(1) - 9.8231954 w(0) + z - pp(15) <= -9.62072573
 c122: 1.83622757 w(8) + 0.52498719 w(7) + 0.26348749 w(6) - 0.06143224 w(5)
       - 9.52211978 w(4) + 11.19499619 w(3) + 11.05575496 w(2)
       + 9.83310735 w(1) + 9.8231954 w(0) - z - pm(15) <= 10.02072573
 c123: tp(15) - pp(15) <= 0
 c124: tp(15) - 156 s(15) <= 0
 c125: tp(15) - pp(15) - 156 s(15) >= -156
 c126: tm(15) - pm(15) <= 0
 c127: tm(15) - 149 s(15) <= 0
 c128: tm(15) - pm(15) - 149 s(15) >= -149
 c129: - 2.30380076 w(8) + 0.18878111 w(7) + 0.46491793 w(6) + 0.43749811 w(5)
       + 1.39145136 w(4) - 1.21851923 w(3) + 1.94446509 w(2) - 0.2406198 w(1)
       - 0.17619152 w(0) + z - pp(16) <= 1.96104108
 c130: 2.30380076 w(8) - 0.18878111 w(7) - 0.46491793 w(6) - 0.43749811 w(5)
       - 1.39145136 w(4) + 1.21851923 w(3) - 1.94446509 w(2) + 0.2406198 w(1)
       + 0.17619152 w(0) - z - pm(16) <= -1.56104108
 c131: tp(16) - pp(16) <= 0
 c132: tp(16) - 156 s(16) <= 0
 c133: tp(16) - pp(16) - 156 s(16) >= -156
 c134: tm(16) - pm(16) <= 0
 c135: tm(16) - 149 s(16) <= 0
 c136: tm(16) - pm(16) - 149 s(16) >= -149
 c137: - 1.48277118 w(8) - 0.66062011 w(7) - 0.4028062 w(6) + 0.56188048 w(5)
       + 0.65131675 w(4) + 1.26481745 w(3) + 0.28026436 w(2) + 0.46229744 w(1)
       - 0.40114822 w(0) + z - pp(17) <= 3.40668892
 c138: 1.48277118 w(8) + 0.66062011 w(7) + 0.4028062 w(6) - 0.56188048 w(5)
       - 0.65131675 w(4) - 1.26481745 w(3) - 0.28026436 w(2) - 0.46229744 w(1)
       + 0.40114822 w(0) - z - pm(17) <= -3.00668892
 c139: tp(17) - pp(17) <= 0
 c140: tp(17) - 156 s(17) <= 0
 c141: tp(17) - pp(17) - 156 s(17) >= -156
 c142: tm(17) - pm(17) <= 0
 c143: tm(17) - 149 s(17) <= 0
 c144: tm(17) - pm(17) - 149 s(17) >= -149
 c145: 0.9524951 w(8) - 0.95805607 w(7) - 0.63730913 w(6) + 1.47824213 w(5)
       - 0.74766589 w(4) - 0.8819715 w(3) - 1.13634494 w(2) - 0.53485881 w(1)
       - 1.84480175 w(0) + z - pp(18) <= -3.18118032
 c146: - 0.9524951 w(8) + 0.95805607 w(7) + 0.63730913 w(6) - 1.47824213 w(5)
       + 0.74766589 w(4) + 0.8819715 w(3) + 1.13634494 w(2) + 0.53485881 w(1)
       + 1.84480175 w(0) - z - pm(18) <= 3.58118032
 c147: tp(18) - pp(18) <= 0
 c148: tp(18) - 156 s(18) <= 0
 c149: tp(18) - pp(18) - 156 s(18) >= -156
 c150: tm(18) - pm(18) <= 0
 c151: tm(18) - 149 s(18) <= 0
 c152: tm(18) - pm(18) - 149 s(18) >= -149
 c153: 0.58647858 w(8) + 1.45156372 w(7) + 1.47106736 w(6) - 1.23092822 w(5)
       + 0.03940137 w(4) - 0.55000275 w(3) + 0.94729995 w(2) - 1.13901033 w(1)
       + 0.14899126 w(0) + z - pp(19) <= -0.49764049
 c154: - 0.58647858 w(8) - 1.45156372 w(7) - 1.47106736 w(6) + 1.23092822 w(5)
       - 0.03940137 w(4) + 0.55000275 w(3) - 0.94729995 w(2) + 1.13901033 w(1)
       - 0.14899126 w(0) - z - pm(19) <= 0.89764049
 c155: tp(19) - pp(19) <= 0
 c156: tp(19) - 156 s(19) <= 0
 c157: tp(19) - pp(19) - 156 s(19) >= -156
 c158: tm(19) - pm(19) <= 0
 c159: tm(19) - 149 s(19) <= 0
 c160: tm(19) - pm(19) - 149 s(19) >= -149
 c161: 1.0187204 w(8) + 1.44612044 w(7) + 0.64918293 w(6) - 1.31089684 w(5)
       + 1.22156786 w(4) + 0.74815361 w(3) - 0.29242853 w(2) - 0.91372773 w(1)
       - 1.24093054 w(0) + z - pp(20) <= -0.63023267
 c162: - 1.0187204 w(8) - 1.44612044 w(7) - 0.64918293 w(6) + 1.31089684 w(5)
       - 1.22156786 w(4) - 0.74815361 w(3) + 0.29242853 w(2) + 0.91372773 w(1)
       + 1.24093054 w(0) - z - pm(20) <= 1.03023267
 c163: tp(20) - pp(20) <= 0
 c164: tp(20) - 156 s(20) <= 0
 c165: tp(20) - pp(20) - 156 s(20) >= -156
 c166: tm(20) - pm(20) <= 0
 c167: tm(20) - 149 s(20) <= 0
 c168: tm(20) - pm(20) - 149 s(20) >= -149
 c169: - 0.21370309 w(8) + 1.55705469 w(7) - 0.00450155 w(6) + 1.63335471 w(5)
       - 0.73282295 w(4) + 0.0554712 w(3) + 0.83371021 w(2) + 0.30076477 w(1)
       - 0.42382761 w(0) + z - pp(21) <= 3.20982882
 c170: 0.21370309 w(8) - 1.55705469 w(7) + 0.00450155 w(6) - 1.63335471 w(5)
       + 0.73282295 w(4) - 0.0554712 w(3) - 0.83371021 w(2) - 0.30076477 w(1)
       + 0.42382761 w(0) - z - pm(21) <= -2.80982882
 c171: tp(21) - pp(21) <= 0
 c172: tp(21) - 156 s(21) <= 0
 c173: tp(21) - pp(21) - 156 s(21) >= -156
 c174: tm(21) - pm(21) <= 0
 c175: tm(21) - 149 s(21) <= 0
 c176: tm(21) - pm(21) - 149 s(21) >= -149
 c177: - 0.76713078 w(8) + 0.02554321 w(7) + 0.63437425 w(6) + 0.84122415 w(5)
       + 0.93069857 w(4) + 2.00311801 w(3) - 0.36368464 w(2) - 0.63184474 w(1)
       + 0.93886973 w(0) + z - pp(22) <= 3.7549244
 c178: 0.76713078 w(8) - 0.02554321 w(7) - 0.63437425 w(6) - 0.84122415 w(5)
       - 0.93069857 w(4) - 2.00311801 w(3) + 0.36368464 w(2) + 0.63184474 w(1)
       - 0.93886973 w(0) - z - pm(22) <= -3.3549244
 c179: tp(22) - pp(22) <= 0
 c180: tp(22) - 156 s(22) <= 0
 c181: tp(22) - pp(22) - 156 s(22) >= -156
 c182: tm(22) - pm(22) <= 0
 c183: tm(22) - 149 s(22) <= 0
 c184: tm(22) - pm(22) - 149 s(22) >= -149
 c185: 0.28905011 w(8) - 0.40499216 w(7) - 0.76765277 w(6) - 0.56003001 w(5)
       + 1.03010538 w(4) + 0.40527518 w(3) + 1.62072991 w(2) + 0.38487329 w(1)
       + 0.06772594 w(0) + z - pp(23) <= 4.08558023
 c186: - 0.28905011 w(8) + 0.40499216 w(7) + 0.76765277 w(6) + 0.56003001 w(5)
       - 1.03010538 w(4) - 0.40527518 w(3) - 1.62072991 w(2) - 0.38487329 w(1)
       - 0.06772594 w(0) - z - pm(23) <= -3.68558023
 c187: tp(23) - pp(23) <= 0
 c188: tp(23) - 156 s(23) <= 0
 c189: tp(23) - pp(23) - 156 s(23) >= -156
 c190: tm(23) - pm(23) <= 0
 c191: tm(23) - 149 s(23) <= 0
 c192: tm(23) - pm(23) - 149 s(23) >= -149
 c193: - 1.68572064 w(8) - 2.02103745 w(7) - 0.06809921 w(6) - 0.85343858 w(5)
       - 1.07626519 w(4) - 0.53817624 w(3) - 0.65379309 w(2) - 1.11088574 w(1)
       - 1.30437909 w(0) + z - pp(24) <= -6.42961326
 c194: 1.68572064 w(8) + 2.02103745 w(7) + 0.06809921 w(6) + 0.85343858 w(5)
       + 1.07626519 w(4) + 0.53817624 w(3) + 0.65379309 w(2) + 1.11088574 w(1)
       + 1.30437909 w(0) - z - pm(24) <= 6.82961326
 c195: tp(24) - pp(24) <= 0
 c196: tp(24) - 156 s(24) <= 0
 c197: tp(24) - pp(24) - 156 s(24) >= -156
 c198: tm(24) - pm(24) <= 0
 c199: tm(24) - 149 s(24) <= 0
 c200: tm(24) - pm(24) - 149 s(24) >= -149
 c201: 1.08718645 w(8) + 0.37228958 w(7) - 0.68505809 w(6) + 0.65856156 w(5)
       + 0.40218865 w(4) - 0.53002665 w(3) + 0.50212967 w(2) + 1.56432022 w(1)
       + 1.29544848 w(0) + z - pp(25) <= 4.74357958
 c202: - 1.08718645 w(8) - 0.37228958 w(7) + 0.68505809 w(6) - 0.65856156 w(5)
       - 0.40218865 w(4) + 0.53002665 w(3) - 0.50212967 w(2) - 1.56432022 w(1)
       - 1.29544848 w(0) - z - pm(25) <= -4.34357958
 c203: tp(25) - pp(25) <= 0
 c204: tp(25) - 156 s(25) <= 0
 c205: tp(25) - pp(25) - 156 s(25) >= -156
 c206: tm(25) - pm(25) <= 0
 c207: tm(25) - 149 s(25) <= 0
 c208: tm(25) - pm(25) - 149 s(25) >= -149
 c209: - 0.3226033 w(8) - 0.77941784 w(7) + 2.02547712 w(6) - 1.33876033 w(5)
       - 0.65253829 w(4) + 0.3904641 w(3) - 0.97996921 w(2) - 0.35132367 w(1)
       + 0.71575351 w(0) + z - pp(26) <= -2.62216853
 c210: 0.3226033 w(8) + 0.77941784 w(7) - 2.02547712 w(6) + 1.33876033 w(5)
       + 0.65253829 w(4) - 0.3904641 w(3) + 0.97996921 w(2) + 0.35132367 w(1)
       - 0.71575351 w(0) - z - pm(26) <= 3.02216853
 c211: tp(26) - pp(26) <= 0
 c212: tp(26) - 156 s(26) <= 0
 c213: tp(26) - pp(26) - 156 s(26) >= -156
 c214: tm(26) - pm(26) <= 0
 c215: tm(26) - 149 s(26) <= 0
 c216: tm(26) - pm(26) - 149 s(26) >= -149
 c217: - 0.81357572 w(8) - 2.51087905 w(7) + 0.64992576 w(6) + 0.35709185 w(5)
       - 1.2017479 w(4) - 0.20080587 w(3) + 0.31347287 w(2) + 1.89514558 w(1)
       - 1.36324777 w(0) + z - pp(27) <= -0.19739758
 c218: 0.81357572 w(8) + 2.51087905 w(7) - 0.64992576 w(6) - 0.35709185 w(5)
       + 1.2017479 w(4) + 0.20080587 w(3) - 0.31347287 w(2) - 1.89514558 w(1)
       + 1.36324777 w(0) - z - pm(27) <= 0.59739758
 c219: tp(27) - pp(27) <= 0
 c220: tp(27) - 156 s(27) <= 0
 c221: tp(27) - pp(27) - 156 s(27) >= -156
 c222: tm(27) - pm(27) <= 0
 c223: tm(27) - 149 s(27) <= 0
 c224: tm(27) - pm(27) - 149 s(27) >= -149
 c225: 1.51770166 w(8) + 1.65067878 w(7) - 2.09518063 w(6) + 0.09316577 w(5)
       + 1.96660583 w(4) - 0.44814271 w(3) - 1.00632136 w(2) - 1.80105513 w(1)
       - 0.60653979 w(0) + z - pp(28) <= -1.51226071
 c226: - 1.51770166 w(8) - 1.65067878 w(7) + 2.09518063 w(6) - 0.09316577 w(5)
       - 1.96660583 w(4) + 0.44814271 w(3) + 1.00632136 w(2) + 1.80105513 w(1)
       + 0.60653979 w(0) - z - pm(28) <= 1.91226071
 c227: tp(28) - pp(28) <= 0
 c228: tp(28) - 156 s(28) <= 0
 c229: tp(28) - pp(28) - 156 s(28) >= -156
 c230: tm(28) - pm(28) <= 0
 c231: tm(28) - 149 s(28) <= 0
 c232: tm(28) - pm(28) - 149 s(28) >= -149
 c233: - 1.23003996 w(8) - 0.42077918 w(7) + 1.04254965 w(6) - 1.75234784 w(5)
       - 0.25828969 w(4) + 1.37972895 w(3) - 0.9015394 w(2) - 0.63303565 w(1)
       + 0.09008106 w(0) + z - pp(29) <= -2.20672953
 c234: 1.23003996 w(8) + 0.42077918 w(7) - 1.04254965 w(6) + 1.75234784 w(5)
       + 0.25828969 w(4) - 1.37972895 w(3) + 0.9015394 w(2) + 0.63303565 w(1)
       - 0.09008106 w(0) - z - pm(29) <= 2.60672953
 c235: tp(29) - pp(29) <= 0
 c236: tp(29) - 156 s(29) <= 0
 c237: tp(29) - pp(29) - 156 s(29) >= -156
 c238: tm(29) - pm(29) <= 0
 c239: tm(29) - 149 s(29) <= 0
 c240: tm(29) - pm(29) - 149 s(29) >= -149
 c241: 1.94975525 w(8) - 0.45486389 w(7) + 0.78842926 w(6) + 1.28187144 w(5)
       - 1.07639572 w(4) + 0.76789124 w(3) - 0.25530071 w(2) + 0.48973486 w(1)
       - 0.4442542 w(0) + z - pp(30) <= -0.13048918
 c242: - 1.94975525 w(8) + 0.45486389 w(7) - 0.78842926 w(6) - 1.28187144 w(5)
       + 1.07639572 w(4) - 0.76789124 w(3) + 0.25530071 w(2) - 0.48973486 w(1)
       + 0.4442542 w(0) - z - pm(30) <= 0.53048918
 c243: tp(30) - pp(30) <= 0
 c244: tp(30) - 156 s(30) <= 0
 c245: tp(30) - pp(30) - 156 s(30) >= -156
 c246: tm(30) - pm(30) <= 0
 c247: tm(30) - 149 s(30) <= 0
 c248: tm(30) - pm(30) - 149 s(30) >= -149
 c249: 1.06644592 w(8) - 0.19784236 w(7) + 1.47775171 w(6) - 2.22031546 w(5)
       - 0.00436978 w(4) - 1.12547324 w(3) + 0.02533747 w(2) + 1.9365427 w(1)
       + 1.20680256 w(0) + z - pp(31) <= -0.56947862
 c250: - 1.06644592 w(8) + 0.19784236 w(7) - 1.47775171 w(6) + 2.22031546 w(5)
       + 0.00436978 w(4) + 1.12547324 w(3) - 0.02533747 w(2) - 1.9365427 w(1)
       - 1.20680256 w(0) - z - pm(31) <= 0.96947862
 c251: tp(31) - pp(31) <= 0
 c252: tp(31) - 156 s(31) <= 0
 c253: tp(31) - pp(31) - 156 s(31) >= -156
 c254: tm(31) - pm(31) <= 0
 c255: tm(31) - 149 s(31) <= 0
 c256: tm(31) - pm(31) - 149 s(31) >= -149
 c257: - 0.04770247 w(8) + 0.21619684 w(7) - 0.31913458 w(6) - 1.77775564 w(5)
       + 1.89931818 w(4) - 1.83816917 w(3) + 0.40528578 w(2) + 0.67592729 w(1)
       + 0.34842208 w(0) + z - pp(32) <= 0.50444911
 c258: 0.04770247 w(8) - 0.21619684 w(7) + 0.31913458 w(6) + 1.77775564 w(5)
       - 1.89931818 w(4) + 1.83816917 w(3) - 0.40528578 w(2) - 0.67592729 w(1)
       - 0.34842208 w(0) - z - pm(32) <= -0.10444911
 c259: tp(32) - pp(32) <= 0
 c260: tp(32) - 156 s(32) <= 0
 c261: tp(32) - pp(32) - 156 s(32) >= -156
 c262: tm(32) - pm(32) <= 0
 c263: tm(32) - 149 s(32) <= 0
 c264: tm(32) - pm(32) - 149 s(32) >= -149
 c265: - 0.84876497 w(8) - 1.41994781 w(7) - 0.09422334 w(6) + 1.02285473 w(5)
       + 0.73964486 w(4) + 0.33113322 w(3) + 0.57768722 w(2) + 0.13983337 w(1)
       - 0.55861792 w(0) + z - pp(33) <= 2.64816313
 c266: 0.84876497 w(8) + 1.41994781 w(7) + 0.09422334 w(6) - 1.02285473 w(5)
       - 0.73964486 w(4) - 0.33113322 w(3) - 0.57768722 w(2) - 0.13983337 w(1)
       + 0.55861792 w(0) - z - pm(33) <= -2.24816313
 c267: tp(33) - pp(33) <= 0
 c268: tp(33) - 156 s(33) <= 0
 c269: tp(33) - pp(33) - 156 s(33) >= -156
 c270: tm(33) - pm(33) <= 0
 c271: tm(33) - 149 s(33) <= 0
 c272: tm(33) - pm(33) - 149 s(33) >= -149
 c273: - 0.29734737 w(8) + 1.78865126 w(7) - 1.38341924 w(6) + 0.65689071 w(5)
       + 1.50828343 w(4) + 0.42066794 w(3) - 1.30312451 w(2) + 1.254209 w(1)
       + 0.64475374 w(0) + z - pp(34) <= 3.48411296
 c274: 0.29734737 w(8) - 1.78865126 w(7) + 1.38341924 w(6) - 0.65689071 w(5)
       - 1.50828343 w(4) - 0.42066794 w(3) + 1.30312451 w(2) - 1.254209 w(1)
       - 0.64475374 w(0) - z - pm(34) <= -3.08411296
 c275: tp(34) - pp(34) <= 0
 c276: tp(34) - 156 s(34) <= 0
 c277: tp(34) - pp(34) - 156 s(34) >= -156
 c278: tm(34) - pm(34) <= 0
 c279: tm(34) - 149 s(34) <= 0
 c280: tm(34) - pm(34) - 149 s(34) >= -149
 c281: - 1.58180745 w(8) + 1.32917925 w(7) + 0.80313941 w(6) - 0.77543381 w(5)
       - 1.32251127 w(4) - 0.34389646 w(3) + 0.71487875 w(2) - 0.37434689 w(1)
       + 0.15978985 w(0) + z - pp(35) <= -1.58309023
 c282: 1.58180745 w(8) - 1.32917925 w(7) - 0.80313941 w(6) + 0.77543381 w(5)
       + 1.32251127 w(4) + 0.34389646 w(3) - 0.71487875 w(2) + 0.37434689 w(1)
       - 0.15978985 w(0) - z - pm(35) <= 1.98309023
 c283: tp(35) - pp(35) <= 0
 c284: tp(35) - 156 s(35) <= 0
 c285: tp(35) - pp(35) - 156 s(35) >= -156
 c286: tm(35) - pm(35) <= 0
 c287: tm(35) - 149 s(35) <= 0
 c288: tm(35) - pm(35) - 149 s(35) >= -149
 c289: 0.0545145 w(8) + 0.29178837 w(7) - 0.55368554 w(6) - 0.78208773 w(5)
       + 0.59793888 w(4) + 0.51746672 w(3) + 0.21108703 w(2) + 1.69652279 w(1)
       - 0.31248451 w(0) + z - pp(36) <= 3.23240705
 c290: - 0.0545145 w(8) - 0.29178837 w(7) + 0.55368554 w(6) + 0.78208773 w(5)
       - 0.59793888 w(4) - 0.51746672 w(3) - 0.21108703 w(2) - 1.69652279 w(1)
       + 0.31248451 w(0) - z - pm(36) <= -2.83240705
 c291: tp(36) - pp(36) <= 0
 c292: tp(36) - 156 s(36) <= 0
 c293: tp(36) - pp(36) - 156 s(36) >= -156
 c294: tm(36) - pm(36) <= 0
 c295: tm(36) - 149 s(36) <= 0
 c296: tm(36) - pm(36) - 149 s(36) >= -149
 c297: 0.72422874 w(8) - 1.05946643 w(7) - 0.24167842 w(6) + 0.68618467 w(5)
       - 0.83270542 w(4) + 0.1671561 w(3) - 0.23503884 w(2) + 0.58756221 w(1)
       - 0.6496233 w(0) + z - pp(37) <= 1.33026766
 c298: - 0.72422874 w(8) + 1.05946643 w(7) + 0.24167842 w(6) - 0.68618467 w(5)
       + 0.83270542 w(4) - 0.1671561 w(3) + 0.23503884 w(2) - 0.58756221 w(1)
       + 0.6496233 w(0) - z - pm(37) <= -0.93026766
 c299: tp(37) - pp(37) <= 0
 c300: tp(37) - 156 s(37) <= 0
 c301: tp(37) - pp(37) - 156 s(37) >= -156
 c302: tm(37) - pm(37) <= 0
 c303: tm(37) - 149 s(37) <= 0
 c304: tm(37) - pm(37) - 149 s(37) >= -149
 c305: - 1.49708976 w(8) + 1.12281936 w(7) - 1.85555081 w(6) - 1.06938491 w(5)
       - 0.7128864 w(4) + 0.84448074 w(3) + 0.99105943 w(2) + 0.28701962 w(1)
       - 0.72647248 w(0) + z - pp(38) <= 0.13751317
 c306: 1.49708976 w(8) - 1.12281936 w(7) + 1.85555081 w(6) + 1.06938491 w(5)
       + 0.7128864 w(4) - 0.84448074 w(3) - 0.99105943 w(2) - 0.28701962 w(1)
       + 0.72647248 w(0) - z - pm(38) <= 0.26248683
 c307: tp(38) - pp(38) <= 0
 c308: tp(38) - 156 s(38) <= 0
 c309: tp(38) - pp(38) - 156 s(38) >= -156
 c310: tm(38) - pm(38) <= 0
 c311: tm(38) - 149 s(38) <= 0
 c312: tm(38) - pm(38) - 149 s(38) >= -149
 c313: 0.5097769 w(8) - 0.84468545 w(7) + 0.64729266 w(6) - 0.46829104 w(5)
       - 11.53214324 w(4) - 9.60006107 w(3) + 7.99127227 w(2) + 9.35648603 w(1)
       + 8.12984612 w(0) + z - pp(39) <= -12.58652804
 c314: - 0.5097769 w(8) + 0.84468545 w(7) - 0.64729266 w(6) + 0.46829104 w(5)
       + 11.53214324 w(4) + 9.60006107 w(3) - 7.99127227 w(2) - 9.35648603 w(1)
       - 8.12984612 w(0) - z - pm(39) <= 12.98652804
 c315: tp(39) - pp(39) <= 0
 c316: tp(39) - 156 s(39) <= 0
 c317: tp(39) - pp(39) - 156 s(39) >= -156
 c318: tm(39) - pm(39) <= 0
 c319: tm(39) - 149 s(39) <= 0
 c320: tm(39) - pm(39) - 149 s(39) >= -149
 c321: - 0.59243655 w(8) - 0.24011777 w(7) + 0.22472649 w(6) + 0.39184111 w(5)
       + 1.95778677 w(4) - 0.04415679 w(3) - 0.51643724 w(2) - 0.24380685 w(1)
       - 1.46489381 w(0) + z - pp(40) <= 0.32270202
 c322: 0.59243655 w(8) + 0.24011777 w(7) - 0.22472649 w(6) - 0.39184111 w(5)
       - 1.95778677 w(4) + 0.04415679 w(3) + 0.51643724 w(2) + 0.24380685 w(1)
       + 1.46489381 w(0) - z - pm(40) <= 0.07729798
 c323: tp(40) - pp(40) <= 0
 c324: tp(40) - 156 s(40) <= 0
 c325: tp(40) - pp(40) - 156 s(40) >= -156
 c326: tm(40) - pm(40) <= 0
 c327: tm(40) - 149 s(40) <= 0
 c328: tm(40) - pm(40) - 149 s(40) >= -149
 c329: 0.06160535 w(8) + 0.80506754 w(7) - 0.45402348 w(6) - 0.75367498 w(5)
       + 0.98158832 w(4) - 0.76612898 w(3) + 1.52377869 w(2) - 0.69537527 w(1)
       + 0.61276521 w(0) + z - pp(41) <= 1.53179076
 c330: - 0.06160535 w(8) - 0.80506754 w(7) + 0.45402348 w(6) + 0.75367498 w(5)
       - 0.98158832 w(4) + 0.76612898 w(3) - 1.52377869 w(2) + 0.69537527 w(1)
       - 0.61276521 w(0) - z - pm(41) <= -1.13179076
 c331: tp(41) - pp(41) <= 0
 c332: tp(41) - 156 s(41) <= 0
 c333: tp(41) - pp(41) - 156 s(41) >= -156
 c334: tm(41) - pm(41) <= 0
 c335: tm(41) - 149 s(41) <= 0
 c336: tm(41) - pm(41) - 149 s(41) >= -149
 c337: - 1.60411701 w(8) - 1.98210007 w(7) + 0.70562085 w(6) - 0.4612493 w(5)
       + 0.54910743 w(4) - 0.58190028 w(3) - 0.27142748 w(2) - 0.46809845 w(1)
       - 0.29545623 w(0) + z - pp(42) <= -0.2299761
 c338: 1.60411701 w(8) + 1.98210007 w(7) - 0.70562085 w(6) + 0.4612493 w(5)
       - 0.54910743 w(4) + 0.58190028 w(3) + 0.27142748 w(2) + 0.46809845 w(1)
       + 0.29545623 w(0) - z - pm(42) <= 0.6299761
 c339: tp(42) - pp(42) <= 0
 c340: tp(42) - 156 s(42) <= 0
 c341: tp(42) - pp(42) - 156 s(42) >= -156
 c342: tm(42) - pm(42) <= 0
 c343: tm(42) - 149 s(42) <= 0
 c344: tm(42) - pm(42) - 149 s(42) >= -149
 c345: - 0.12630138 w(8) - 0.27643885 w(7) + 1.16804145 w(6) - 1.14401546 w(5)
       - 0.8465731 w(4) - 0.48725661 w(3) + 1.11373106 w(2) + 0.34770897 w(1)
       - 1.86862838 w(0) + z - pp(43) <= -2.7566456
 c346: 0.12630138 w(8) + 0.27643885 w(7) - 1.16804145 w(6) + 1.14401546 w(5)
       + 0.8465731 w(4) + 0.48725661 w(3) - 1.11373106 w(2) - 0.34770897 w(1)
       + 1.86862838 w(0) - z - pm(43) <= 3.1566456
 c347: tp(43) - pp(43) <= 0
 c348: tp(43) - 156 s(43) <= 0
 c349: tp(43) - pp(43) - 156 s(43) >= -156
 c350: tm(43) - pm(43) <= 0
 c351: tm(43) - 149 s(43) <= 0
 c352: tm(43) - pm(43) - 149 s(43) >= -149
 c353: 0.19494232 w(8) + 0.21064403 w(7) + 0.3217089 w(6) + 1.21322083 w(5)
       - 0.52783727 w(4) - 1.3563786 w(3) + 1.39673526 w(2) + 0.70254561 w(1)
       - 0.53827416 w(0) + z - pp(44) <= 0.84752246
 c354: - 0.19494232 w(8) - 0.21064403 w(7) - 0.3217089 w(6) - 1.21322083 w(5)
       + 0.52783727 w(4) + 1.3563786 w(3) - 1.39673526 w(2) - 0.70254561 w(1)
       + 0.53827416 w(0) - z - pm(44) <= -0.44752246
 c355: tp(44) - pp(44) <= 0
 c356: tp(44) - 156 s(44) <= 0
 c357: tp(44) - pp(44) - 156 s(44) >= -156
 c358: tm(44) - pm(44) <= 0
 c359: tm(44) - 149 s(44) <= 0
 c360: tm(44) - pm(44) - 149 s(44) >= -149
 c361: - 1.9337474 w(8) + 0.45311516 w(7) + 0.60055138 w(6) - 0.57347547 w(5)
       + 0.80818412 w(4) + 2.89605702 w(3) - 0.21770401 w(2) - 0.15800728 w(1)
       - 0.26836708 w(0) + z - pp(45) <= 2.62168088
 c362: 1.9337474 w(8) - 0.45311516 w(7) - 0.60055138 w(6) + 0.57347547 w(5)
       - 0.80818412 w(4) - 2.89605702 w(3) + 0.21770401 w(2) + 0.15800728 w(1)
       + 0.26836708 w(0) - z - pm(45) <= -2.22168088
 c363: tp(45) - pp(45) <= 0
 c364: tp(45) - 156 s(45) <= 0
 c365: tp(45) - pp(45) - 156 s(45) >= -156
 c366: tm(45) - pm(45) <= 0
 c367: tm(45) - 149 s(45) <= 0
 c368: tm(45) - pm(45) - 149 s(45) >= -149
 c369: - 0.14222743 w(8) - 1.54074169 w(7) - 0.20442015 w(6) - 0.65888664 w(5)
       + 0.75926568 w(4) - 1.0208887 w(3) + 1.15967137 w(2) - 0.13752404 w(1)
       + 1.37391166 w(0) + z - pp(46) <= 2.06289973
 c370: 0.14222743 w(8) + 1.54074169 w(7) + 0.20442015 w(6) + 0.65888664 w(5)
       - 0.75926568 w(4) + 1.0208887 w(3) - 1.15967137 w(2) + 0.13752404 w(1)
       - 1.37391166 w(0) - z - pm(46) <= -1.66289973
 c371: tp(46) - pp(46) <= 0
 c372: tp(46) - 156 s(46) <= 0
 c373: tp(46) - pp(46) - 156 s(46) >= -156
 c374: tm(46) - pm(46) <= 0
 c375: tm(46) - 149 s(46) <= 0
 c376: tm(46) - pm(46) - 149 s(46) >= -149
 c377: - 0.10263585 w(8) - 0.79633377 w(7) - 0.44726137 w(6) + 1.05528251 w(5)
       - 0.73725846 w(4) - 0.60352121 w(3) - 0.73009667 w(2) + 1.05665384 w(1)
       - 0.39612449 w(0) + z - pp(47) <= -1.08298525
 c378: 0.10263585 w(8) + 0.79633377 w(7) + 0.44726137 w(6) - 1.05528251 w(5)
       + 0.73725846 w(4) + 0.60352121 w(3) + 0.73009667 w(2) - 1.05665384 w(1)
       + 0.39612449 w(0) - z - pm(47) <= 1.48298525
 c379: tp(47) - pp(47) <= 0
 c380: tp(47) - 156 s(47) <= 0
 c381: tp(47) - pp(47) - 156 s(47) >= -156
 c382: tm(47) - pm(47) <= 0
 c383: tm(47) - 149 s(47) <= 0
 c384: tm(47) - pm(47) - 149 s(47) >= -149
 c385: 0.43891693 w(8) - 0.31925747 w(7) + 0.66319533 w(6) + 2.17433729 w(5)
       - 0.8138617 w(4) - 0.08387498 w(3) + 0.28156413 w(2) - 0.90662616 w(1)
       + 0.38801457 w(0) + z - pp(48) <= 0.66768605
 c386: - 0.43891693 w(8) + 0.31925747 w(7) - 0.66319533 w(6) - 2.17433729 w(5)
       + 0.8138617 w(4) + 0.08387498 w(3) - 0.28156413 w(2) + 0.90662616 w(1)
       - 0.38801457 w(0) - z - pm(48) <= -0.26768605
 c387: tp(48) - pp(48) <= 0
 c388: tp(48) - 156 s(48) <= 0
 c389: tp(48) - pp(48) - 156 s(48) >= -156
 c390: tm(48) - pm(48) <= 0
 c391: tm(48) - 149 s(48) <= 0
 c392: tm(48) - pm(48) - 149 s(48) >= -149
 c393: 0.36306777 w(8) - 1.35513626 w(7) + 0.33522625 w(6) + 0.33766756 w(5)
       - 1.21351191 w(4) + 0.73413232 w(3) - 2.05593219 w(2) - 0.25280633 w(1)
       + 1.34645999 w(0) + z - pp(49) <= -1.28615919
 c394: - 0.36306777 w(8) + 1.35513626 w(7) - 0.33522625 w(6) - 0.33766756 w(5)
       + 1.21351191 w(4) - 0.73413232 w(3) + 2.05593219 w(2) + 0.25280633 w(1)
       - 1.34645999 w(0) - z - pm(49) <= 1.68615919
 c395: tp(49) - pp(49) <= 0
 c396: tp(49) - 156 s(49) <= 0
 c397: tp(49) - pp(49) - 156 s(49) >= -156
 c398: tm(49) - pm(49) <= 0
 c399: tm(49) - 149 s(49) <= 0
 c400: tm(49) - pm(49) - 149 s(49) >= -149
 c401: w(0) - 30 f(0) <= 0
 c402: w(0) + 10 f(0) >= 0
 c403: w(1) - 30 f(1) <= 0
 c404: w(1) + 10 f(1) >= 0
 c405: w(2) - 30 f(2) <= 0
 c406: w(2) + 10 f(2) >= 0
 c407: w(3) - 30 f(3) <= 0
 c408: w(3) + 10 f(3) >= 0
 c409: w(4) - 20 f(4) <= 0
 c410: w(4) + 20 f(4) >= 0
 c411: w(5) - 20 f(5) <= 0
 c412: w(5) + 20 f(5) >= 0
 c413: w(6) - 20 f(6) <= 0
 c414: w(6) + 20 f(6) >= 0
 c415: w(7) - 20 f(7) <= 0
 c416: w(7) + 20 f(7) >= 0
 c417: w(8) - 20 f(8) <= 0
 c418: w(8) + 20 f(8) >= 0
 c419: f(0) + f(1) + f(2) + f(3) + f(4) + f(5) + f(6) + f(7) + f(8) <= 4
 c420: s(0) + s(1) + s(2) + s(3) + s(4) + s(5) + s(6) + s(7) + s(8) + s(9)
       + s(10) + s(11) + s(12) + s(13) + s(14) + s(15) + s(16) + s(17) + s(18)
       + s(19) + s(20) + s(21) + s(22) + s(23) + s(24) + s(25) + s(26) + s(27)
       + s(28) + s(29) + s(30) + s(31) + s(32) + s(33) + s(34) + s(35) + s(36)
       + s(37) + s(38) + s(39) + s(40) + s(41) + s(42) + s(43) + s(44) + s(45)
       + s(46) + s(47) + s(48) + s(49) >= 45
Bounds
      w(8) Free
      w(7) Free
      w(6) Free
      w(5) Free
      w(4) Free
      w(3) Free
      w(2) Free
      w(1) Free
      w(0) Free
      z Free
 0 <= s(0) <= 1
 0 <= s(1) <= 1
 0 <= s(2) <= 1
 0 <= s(3) <= 1
 0 <= s(4) <= 1
 0 <= s(5) <= 1
 0 <= s(6) <= 1
 0 <= s(7) <= 1
 0 <= s(8) <= 1
 0 <= s(9) <= 1
 0 <= s(10) <= 1
 0 <= s(11) <= 1
 0 <= s(12) <= 1
 0 <= s(13) <= 1
 0 <= s(14) <= 1
 0 <= s(15) <= 1
 0 <= s(16) <= 1
 0 <= s(17) <= 1
 0 <= s(18) <= 1
 0 <= s(19) <= 1
 0 <= s(20) <= 1
 0 <= s(21) <= 1
 0 <= s(22) <= 1
 0 <= s(23) <= 1
 0 <= s(24) <= 1
 0 <= s(25) <= 1
 0 <= s(26) <= 1
 0 <= s(27) <= 1
 0 <= s(28) <= 1
 0 <= s(29) <= 1
 0 <= s(30) <= 1
 0 <= s(31) <= 1
 0 <= s(32) <= 1
 0 <= s(33) <= 1
 0 <= s(34) <= 1
 0 <= s(35) <= 1
 0 <= s(36) <= 1
 0 <= s(37) <= 1
 0 <= s(38) <= 1
 0 <= s(39) <= 1
 0 <= s(40) <= 1
 0 <= s(41) <= 1
 0 <= s(42) <= 1
 0 <= s(43) <= 1
 0 <= s(44) <= 1
 0 <= s(45) <= 1
 0 <= s(46) <= 1
 0 <= s(47) <= 1
 0 <= s(48) <= 1
 0 <= s(49) <= 1
 0 <= f(0) <= 1
 0 <= f(1) <= 1
 0 <= f(2) <= 1
 0 <= f(3) <= 1
 0 <= f(4) <= 1
 0 <= f(5) <= 1
 0 <= f(6) <= 1
 0 <= f(7) <= 1
 0 <= f(8) <= 1
Binaries
 s(0)  s(1)  s(2)  s(3)  s(4)  s(5)  s(6)  s(7)  s(8)  s(9)  s(10)  s(11) 
 s(12)  s(13)  s(14)  s(15)  s(16)  s(17)  s(18)  s(19)  s(20)  s(21)  s(22) 
 s(23)  s(24)  s(25)  s(26)  s(27)  s(28)  s(29)  s(30)  s(31)  s(32)  s(33) 
 s(34)  s(35)  s(36)  s(37)  s(38)  s(39)  s(40)  s(41)  s(42)  s(43)  s(44) 
 s(45)  s(46)  s(47)  s(48)  s(49)  f(0)  f(1)  f(2)  f(3)  f(4)  f(5)  f(6) 
 f(7)  f(8) 
End
